c 
c MolecularSimulation 0.9.3
c Simulation written: Jan 13 2012 -- 15:17:57
c Test: Distribution
c Input: ./data/testCNF/SWEEP_R11_K3_N20_M204_S002.cnf
c 
s UNSATISFIABLE
v 0
c algorithmTime:  896
c solutionMemory: 0
c mixCount:       609
c extractCount:   0
c appendCount:    16797820
c splitCount:     609
c spliceCount:    7896181
c purifyCount:    203
c 
